Customers:	100	Capacity:	200	Time Bins	4 	Vehicles: 14

Cust	X	Y	Demand	Start	End	Service	PreBin	0-160	160-320	320-480
D	40	50	0	0	240	0	0	0	0	0
0	25	85	20	0	191	10	10	10	80	0
1	22	75	30	0	199	10	10	10	80	0
2	22	85	10	0	190	10	10	10	80	0
3	20	80	40	141	171	10	10	10	80	0
4	20	85	20	0	189	10	10	10	80	0
5	18	75	20	0	196	10	10	10	80	0
6	15	75	20	0	194	10	10	10	80	0
7	15	80	10	91	121	10	10	90	0	0
8	10	35	20	91	121	10	10	90	0	0
9	10	40	30	0	198	10	10	10	80	0
10	8	40	40	59	89	10	10	90	0	0
11	8	45	20	0	197	10	10	10	80	0
12	5	35	10	142	172	10	10	10	80	0
13	5	45	10	0	194	10	10	10	80	0
14	2	40	20	58	88	10	10	90	0	0
15	0	40	20	0	188	10	10	10	80	0
16	0	45	20	0	189	10	10	10	80	0
17	44	5	20	0	184	10	10	10	80	0
18	42	10	40	0	189	10	10	10	80	0
19	42	15	10	0	194	10	10	10	80	0
20	40	5	10	0	185	10	10	10	80	0
21	40	15	40	0	195	10	10	10	80	0
22	38	5	30	65	95	10	10	90	0	0
23	38	15	10	0	194	10	10	10	80	0
24	35	5	20	154	184	10	10	10	80	0
25	95	30	30	0	171	10	10	10	80	0
26	95	35	20	0	172	10	10	10	80	0
27	92	30	10	0	174	10	10	10	80	0
28	90	35	10	0	177	10	10	10	80	0
29	88	30	10	0	178	10	10	10	80	0
30	88	35	20	0	179	10	10	10	80	0
31	87	30	10	0	178	10	10	10	80	0
32	85	25	10	0	178	10	10	10	80	0
33	85	35	30	0	182	10	10	10	80	0
34	67	85	20	0	185	10	10	10	80	0
35	65	85	40	0	186	10	10	10	80	0
36	65	82	10	0	189	10	10	10	80	0
37	62	80	30	75	105	10	10	90	0	0
38	60	80	10	0	193	10	10	10	80	0
39	60	85	30	0	189	10	10	10	80	0
40	58	75	20	0	199	10	10	10	80	0
41	55	80	10	0	196	10	10	10	80	0
42	55	85	20	0	191	10	10	10	80	0
43	55	82	10	64	94	10	10	90	0	0
44	20	82	10	0	192	10	10	10	80	0
45	18	80	10	0	192	10	10	10	80	0
46	2	45	10	0	191	10	10	10	80	0
47	42	5	10	0	184	10	10	10	80	0
48	42	12	10	0	191	10	10	10	80	0
49	72	35	30	0	194	10	10	10	80	0
50	55	20	19	0	196	10	10	10	80	0
51	25	30	3	0	205	10	10	10	80	0
52	20	50	5	91	121	10	10	90	0	0
53	55	60	16	0	211	10	10	10	80	0
54	30	60	16	140	170	10	10	10	80	0
55	50	35	19	0	211	10	10	10	80	0
56	30	25	23	0	203	10	10	10	80	0
57	15	10	20	152	182	10	10	10	80	0
58	10	20	19	0	187	10	10	10	80	0
59	15	60	17	0	203	10	10	10	80	0
60	45	65	9	0	214	10	10	10	80	0
61	65	35	3	52	82	10	10	90	0	0
62	65	20	6	0	190	10	10	10	80	0
63	45	30	17	0	209	10	10	10	80	0
64	35	40	16	0	218	10	10	10	80	0
65	41	37	16	0	216	10	10	10	80	0
66	64	42	9	70	100	10	10	90	0	0
67	40	60	21	0	220	10	10	10	80	0
68	31	52	27	41	71	10	100	0	0	0
69	35	69	23	0	210	10	10	10	80	0
70	65	55	14	0	204	10	10	10	80	0
71	63	65	8	0	202	10	10	10	80	0
72	2	60	5	0	190	10	10	10	80	0
73	20	20	8	141	171	10	10	10	80	0
74	5	5	16	0	172	10	10	10	80	0
75	60	12	31	75	105	10	10	90	0	0
76	23	3	7	150	180	10	10	10	80	0
77	8	56	27	0	197	10	10	10	80	0
78	6	68	30	89	119	10	10	90	0	0
79	47	47	13	0	222	10	10	10	80	0
80	49	58	10	0	217	10	10	10	80	0
81	27	43	9	0	215	10	10	10	80	0
82	37	31	14	0	210	10	10	10	80	0
83	57	29	18	96	126	10	10	90	0	0
84	63	23	2	0	194	10	10	10	80	0
85	21	24	28	0	197	10	10	10	80	0
86	12	24	13	90	120	10	10	90	0	0
87	24	58	19	0	212	10	10	10	80	0
88	67	5	25	0	177	10	10	10	80	0
89	37	47	6	0	225	10	10	10	80	0
90	49	42	13	0	217	10	10	10	80	0
91	53	43	14	14	44	10	100	0	0	0
92	61	52	3	0	208	10	10	10	80	0
93	57	48	23	0	212	10	10	10	80	0
94	56	37	6	0	209	10	10	10	80	0
95	55	54	26	0	214	10	10	10	80	0
96	4	18	35	0	181	10	10	10	80	0
97	26	52	9	0	215	10	10	10	80	0
98	26	35	15	77	107	10	10	90	0	0
99	31	67	3	180	210	10	10	10	80	0

Known Requests 9
Cust	Arrival	Start	Deadline	Demand	Service
36	-1	0	189		10	10
45	-1	0	192		10	10
50	-1	0	196		19	10
63	-1	0	209		17	10
68	-1	41	71		27	10
74	-1	0	172		16	10
77	-1	0	197		27	10
78	-1	89	119		30	10
91	-1	14	44		14	10

Unknown Requests 87
Cust	Arrival	Start	Deadline	Demand	Service
7	4	91	121		10	10
86	8	90	120		13	10
22	10	65	95		30	10
51	11	11	205		3	10
52	11	91	121		5	10
10	15	59	89		40	10
14	15	58	88		20	10
8	21	91	121		20	10
61	21	52	82		3	10
37	24	75	105		30	10
18	31	31	189		40	10
78	31	89	119		30	10
75	32	75	105		31	10
43	34	64	94		10	10
79	47	47	222		13	10
98	56	77	107		15	10
66	57	70	100		9	10
97	70	70	215		9	10
83	75	96	126		18	10
24	81	154	184		20	10
3	82	141	171		40	10
21	84	84	195		40	10
44	84	84	192		10	10
27	85	85	174		10	10
55	85	85	211		19	10
31	86	86	178		10	10
94	89	89	209		6	10
25	91	91	171		30	10
49	92	92	194		30	10
5	93	93	196		20	10
28	95	95	177		10	10
73	95	141	171		8	10
84	95	95	194		2	10
96	95	95	181		35	10
36	96	96	189		10	10
12	97	142	172		10	10
80	97	97	217		10	10
29	99	99	178		10	10
45	99	99	192		10	10
26	100	100	172		20	10
32	101	101	178		10	10
88	101	101	177		25	10
56	102	102	203		23	10
17	103	103	184		20	10
76	103	150	180		7	10
33	108	108	182		30	10
2	109	109	190		10	10
70	109	109	204		14	10
23	110	110	194		10	10
42	111	111	191		20	10
30	113	113	179		20	10
79	114	114	222		13	10
67	117	117	220		21	10
53	118	118	211		16	10
64	119	119	218		16	10
6	120	120	194		20	10
54	121	140	170		16	10
60	121	121	214		9	10
92	123	123	208		3	10
85	124	124	197		28	10
15	125	125	188		20	10
41	125	125	196		10	10
82	125	125	210		14	10
4	127	127	189		20	10
65	128	128	216		16	10
58	129	129	187		19	10
77	130	130	197		27	10
50	131	131	196		19	10
40	134	134	199		20	10
95	136	136	214		26	10
16	138	138	189		20	10
35	139	139	186		40	10
18	140	140	189		40	10
46	140	140	191		10	10
87	141	141	212		19	10
89	142	142	225		6	10
72	143	143	190		5	10
99	145	180	210		3	10
9	148	148	198		30	10
11	148	148	197		20	10
19	151	151	194		10	10
38	152	152	193		10	10
51	155	155	205		3	10
69	155	155	210		23	10
93	155	155	212		23	10
13	157	157	194		10	10
59	157	157	203		17	10

Pre bin Customers: 2 Block 1 Customers: 15 Block 2 Customers: 83
Customers appear O times: 12
Customers appear 1 times: 80
Customers appear 2 times: 8
Customers appear 3 times: 0
Customers appear 4 times: 0
